NAME: tsp20_8
COMMENT: 20-tsp problem (Padberg/Rinaldi)
TYPE: TSP
DIMENSION: 20
EDGE_WEIGHT_TYPE : EUC_2D
NODE_COORD_SECTION
1 38 37
2 26 13
3 12 0
4 6 17
5 31 11
6 14 25
7 20 4
8 2 25
9 1 30
10 0 24
11 8 19
12 17 31
13 31 22
14 24 3
15 36 25
16 30 18
17 19 13
18 2 26
19 27 22
20 24 9
